Medium-instances_NetworkFacilityLocation/2023-03-27_20hr-25min-09sec/Nodes10_Arcs25_LocNodes8/Formulation-2Instance-2.lp
\ Model LocPrice
\ LP format - for model browsing. Use MPS format to capture full model detail.
Maximize
  - 183 x[1] - 156 x[2] - 193 x[3] - 167 x[4] - 161 x[6] - 177 x[8]
   - 194 x[9] - 194 x[10] - 3.037034435340422 Q[1] - 4.414991134674355 Q[2]
   - 3.002399367173657 Q[3] - 4.006727931107329 Q[4]
   - 3.873334104351305 Q[6] - 3.406505672229129 Q[8]
   - 3.649885289151212 Q[9] - 4.612430662054087 Q[10]
   - 1.519155004264713 f[2,1] - 0.7085823851875905 f[3,2]
   - 0.0436088410914398 f[4,3] - 2.799671700676301 f[5,1]
   - 0.2574773732604899 f[6,5] - 2.53478040442083 f[7,3]
   - 1.10364221673455 f[8,4] - 2.853068943587398 f[9,6]
   - 1.198275784736419 f[10,3] - 2.42653142710401 f[2,10]
   - 2.542873140763602 f[2,9] - 2.875568999398114 f[5,9]
   - 0.0027593673325973 f[8,5] - 2.771029754273204 f[5,8]
   - 0.5630248207035564 f[10,6] - 0.2204199354218327 f[9,8]
   - 0.7744244907489192 f[8,9] - 0.3187861535962716 f[6,2]
   - 0.1717757901472462 f[9,10] - 1.025025552355022 f[8,3]
   - 1.011892517246097 f[5,4] - 1.782161647163122 f[7,1]
   - 0.0171380697837545 f[5,3] - 0.1468967452588489 f[4,2]
   - 1.048511423018494 f[3,9] + 1474 D[2] + 1332 D[3] + 1438 D[4]
   + 1468 D[7] + 1427 D[10] - 1.936442061842003 S[1]
   - 1.556159775533897 S[3] - 1.240135328302776 S[5]
   - 1.741421670027813 S[6] - 1.674389714886763 S[7] + [
   - 1.265808349617961 f[2,1] ^2 - 0.5961543341342233 f[3,2] ^2
   - 2.794047961273243 f[4,3] ^2 - 1.794176403041505 f[5,1] ^2
   - 3.195757963852536 f[6,5] ^2 - 0.9420658292246857 f[7,3] ^2
   - 1.279138617273145 f[8,4] ^2 - 3.199518104219814 f[9,6] ^2
   - 2.028272555693565 f[10,3] ^2 - 2.894705018603185 f[2,10] ^2
   - 2.851561050266274 f[2,9] ^2 - 1.917951007043448 f[5,9] ^2
   - 1.608338107751063 f[8,5] ^2 - 3.739844376746601 f[5,8] ^2
   - 3.955444102476077 f[10,6] ^2 - 1.620394611444638 f[9,8] ^2
   - 2.10842590622833 f[8,9] ^2 - 2.212824023796995 f[6,2] ^2
   - 1.788493286297493 f[9,10] ^2 - 0.780638086387945 f[8,3] ^2
   - 3.435019609839416 f[5,4] ^2 - 1.595949012352175 f[7,1] ^2
   - 2.789253929435204 f[5,3] ^2 - 0.8128584283781275 f[4,2] ^2
   - 3.544300645721413 f[3,9] ^2 - 6.753025051175385 D[2] ^2
   - 7.597046691612211 D[3] ^2 - 6.388050952014089 D[4] ^2
   - 6.780917827595443 D[7] ^2 - 7.595867772194042 D[10] ^2
   - 1.368410424769197 S[1] ^2 - 0.9276487201667345 S[3] ^2
   - 0.4437771183289094 S[5] ^2 - 1.281880282962622 S[6] ^2
   - 0.2141789922745729 S[7] ^2 ] / 2 
Subject To
 R0: Q[1] + Q[2] + Q[3] + Q[4] + Q[6] + Q[8] + Q[9] + Q[10] <= 700
 R1: - 155 x[1] + Q[1] <= 0
 R2: - 190 x[2] + Q[2] <= 0
 R3: - 127 x[3] + Q[3] <= 0
 R4: - 136 x[4] + Q[4] <= 0
 R5: - 187 x[6] + Q[6] <= 0
 R6: - 118 x[8] + Q[8] <= 0
 R7: - 106 x[9] + Q[9] <= 0
 R8: - 137 x[10] + Q[10] <= 0
 node[8]: - Q[8] + f[8,4] + f[8,5] - f[5,8] - f[9,8] + f[8,9] + f[8,3] = 0
 node[9]: - Q[9] + f[9,6] - f[2,9] - f[5,9] + f[9,8] - f[8,9] + f[9,10]
   - f[3,9] = 0
 node[1]: - Q[1] - f[2,1] - f[5,1] - f[7,1] - S[1] = 0
 node[6]: - Q[6] + f[6,5] - f[9,6] - f[10,6] + f[6,2] - S[6] = 0
 node[10]: - Q[10] + f[10,3] - f[2,10] + f[10,6] - f[9,10] + D[10] = 0
 node[2]: - Q[2] + f[2,1] - f[3,2] + f[2,10] + f[2,9] - f[6,2] - f[4,2]
   + D[2] = 0
 node[4]: - Q[4] + f[4,3] - f[8,4] - f[5,4] + f[4,2] + D[4] = 0
 node[3]: - Q[3] + f[3,2] - f[4,3] - f[7,3] - f[10,3] - f[8,3] - f[5,3]
   + f[3,9] + D[3] - S[3] = 0
 node[5]: f[5,1] - f[6,5] + f[5,9] - f[8,5] + f[5,8] + f[5,4] + f[5,3]
   - S[5] = 0
 node[7]: f[7,3] + f[7,1] + D[7] - S[7] = 0
 Cost_Flow[2,1]: - pi[1] + pi[2] + 0.6329041748089803 f[2,1] - mu_f[2,1]
   = -1.519155004264713
 Cost_Flow[3,2]: - pi[2] + pi[3] + 0.2980771670671116 f[3,2] - mu_f[3,2]
   = -0.7085823851875905
 Cost_Flow[4,3]: - pi[3] + pi[4] + 1.397023980636622 f[4,3] - mu_f[4,3]
   = -0.0436088410914398
 Cost_Flow[5,1]: - pi[1] + pi[5] + 0.8970882015207524 f[5,1] - mu_f[5,1]
   = -2.799671700676301
 Cost_Flow[6,5]: - pi[5] + pi[6] + 1.597878981926268 f[6,5] - mu_f[6,5]
   = -0.2574773732604899
 Cost_Flow[7,3]: - pi[3] + pi[7] + 0.4710329146123429 f[7,3] - mu_f[7,3]
   = -2.53478040442083
 Cost_Flow[8,4]: - pi[4] + pi[8] + 0.6395693086365726 f[8,4] - mu_f[8,4]
   = -1.10364221673455
 Cost_Flow[9,6]: - pi[6] + pi[9] + 1.599759052109907 f[9,6] - mu_f[9,6]
   = -2.853068943587398
 Cost_Flow[10,3]: - pi[3] + pi[10] + 1.014136277846783 f[10,3] - mu_f[10,3]
   = -1.198275784736419
 Cost_Flow[2,10]: pi[2] - pi[10] + 1.447352509301593 f[2,10] - mu_f[2,10]
   = -2.42653142710401
 Cost_Flow[2,9]: pi[2] - pi[9] + 1.425780525133137 f[2,9] - mu_f[2,9]
   = -2.542873140763602
 Cost_Flow[5,9]: pi[5] - pi[9] + 0.9589755035217242 f[5,9] - mu_f[5,9]
   = -2.875568999398114
 Cost_Flow[8,5]: - pi[5] + pi[8] + 0.8041690538755317 f[8,5] - mu_f[8,5]
   = -0.0027593673325973
 Cost_Flow[5,8]: pi[5] - pi[8] + 1.869922188373301 f[5,8] - mu_f[5,8]
   = -2.771029754273204
 Cost_Flow[10,6]: - pi[6] + pi[10] + 1.977722051238038 f[10,6] - mu_f[10,6]
   = -0.5630248207035564
 Cost_Flow[9,8]: - pi[8] + pi[9] + 0.8101973057223191 f[9,8] - mu_f[9,8]
   = -0.2204199354218327
 Cost_Flow[8,9]: pi[8] - pi[9] + 1.054212953114165 f[8,9] - mu_f[8,9]
   = -0.7744244907489192
 Cost_Flow[6,2]: - pi[2] + pi[6] + 1.106412011898498 f[6,2] - mu_f[6,2]
   = -0.3187861535962716
 Cost_Flow[9,10]: pi[9] - pi[10] + 0.8942466431487466 f[9,10] - mu_f[9,10]
   = -0.1717757901472462
 Cost_Flow[8,3]: - pi[3] + pi[8] + 0.3903190431939725 f[8,3] - mu_f[8,3]
   = -1.025025552355022
 Cost_Flow[5,4]: - pi[4] + pi[5] + 1.717509804919708 f[5,4] - mu_f[5,4]
   = -1.011892517246097
 Cost_Flow[7,1]: - pi[1] + pi[7] + 0.7979745061760877 f[7,1] - mu_f[7,1]
   = -1.782161647163122
 Cost_Flow[5,3]: - pi[3] + pi[5] + 1.394626964717602 f[5,3] - mu_f[5,3]
   = -0.0171380697837545
 Cost_Flow[4,2]: - pi[2] + pi[4] + 0.4064292141890637 f[4,2] - mu_f[4,2]
   = -0.1468967452588489
 Cost_Flow[3,9]: pi[3] - pi[9] + 1.772150322860706 f[3,9] - mu_f[3,9]
   = -1.048511423018494
 Cost_Demand[2]: pi[2] + 3.376512525587692 D[2] - mu_D[2] = 1474
 Cost_Demand[3]: pi[3] + 3.798523345806105 D[3] - mu_D[3] = 1332
 Cost_Demand[4]: pi[4] + 3.194025476007044 D[4] - mu_D[4] = 1438
 Cost_Demand[7]: pi[7] + 3.390458913797722 D[7] - mu_D[7] = 1468
 Cost_Demand[10]: pi[10] + 3.797933886097021 D[10] - mu_D[10] = 1427
 Cost_Supply[1]: - pi[1] + 0.6842052123845983 S[1] - mu_S[1]
   = -1.936442061842003
 Cost_Supply[3]: - pi[3] + 0.4638243600833672 S[3] - mu_S[3]
   = -1.556159775533897
 Cost_Supply[5]: - pi[5] + 0.2218885591644547 S[5] - mu_S[5]
   = -1.240135328302776
 Cost_Supply[6]: - pi[6] + 0.640940141481311 S[6] - mu_S[6]
   = -1.741421670027813
 Cost_Supply[7]: - pi[7] + 0.1070894961372865 S[7] - mu_S[7]
   = -1.674389714886763
Bounds
Binaries
 x[1] x[2] x[3] x[4] x[6] x[8] x[9] x[10]
SOS
 s0:  S1 :: f[2,1]:1 mu_f[2,1]:2
 s1:  S1 :: f[3,2]:1 mu_f[3,2]:2
 s2:  S1 :: f[4,3]:1 mu_f[4,3]:2
 s3:  S1 :: f[5,1]:1 mu_f[5,1]:2
 s4:  S1 :: f[6,5]:1 mu_f[6,5]:2
 s5:  S1 :: f[7,3]:1 mu_f[7,3]:2
 s6:  S1 :: f[8,4]:1 mu_f[8,4]:2
 s7:  S1 :: f[9,6]:1 mu_f[9,6]:2
 s8:  S1 :: f[10,3]:1 mu_f[10,3]:2
 s9:  S1 :: f[2,10]:1 mu_f[2,10]:2
 s10:  S1 :: f[2,9]:1 mu_f[2,9]:2
 s11:  S1 :: f[5,9]:1 mu_f[5,9]:2
 s12:  S1 :: f[8,5]:1 mu_f[8,5]:2
 s13:  S1 :: f[5,8]:1 mu_f[5,8]:2
 s14:  S1 :: f[10,6]:1 mu_f[10,6]:2
 s15:  S1 :: f[9,8]:1 mu_f[9,8]:2
 s16:  S1 :: f[8,9]:1 mu_f[8,9]:2
 s17:  S1 :: f[6,2]:1 mu_f[6,2]:2
 s18:  S1 :: f[9,10]:1 mu_f[9,10]:2
 s19:  S1 :: f[8,3]:1 mu_f[8,3]:2
 s20:  S1 :: f[5,4]:1 mu_f[5,4]:2
 s21:  S1 :: f[7,1]:1 mu_f[7,1]:2
 s22:  S1 :: f[5,3]:1 mu_f[5,3]:2
 s23:  S1 :: f[4,2]:1 mu_f[4,2]:2
 s24:  S1 :: f[3,9]:1 mu_f[3,9]:2
 s25:  S1 :: D[2]:1 mu_D[2]:2
 s26:  S1 :: D[3]:1 mu_D[3]:2
 s27:  S1 :: D[4]:1 mu_D[4]:2
 s28:  S1 :: D[7]:1 mu_D[7]:2
 s29:  S1 :: D[10]:1 mu_D[10]:2
 s30:  S1 :: S[1]:1 mu_S[1]:2
 s31:  S1 :: S[3]:1 mu_S[3]:2
 s32:  S1 :: S[5]:1 mu_S[5]:2
 s33:  S1 :: S[6]:1 mu_S[6]:2
 s34:  S1 :: S[7]:1 mu_S[7]:2
End
