Medium-instances_NetworkFacilityLocation/2023-03-27_20hr-25min-09sec/Nodes10_Arcs25_LocNodes8/Formulation-2Instance-2.log

Gurobi 9.5.2 (win64) logging started Mon Mar 27 20:25:40 2023

Set parameter LogFile to value "2023-03-27_20hr-25min-09sec/Nodes10_Arcs25_LocNodes8/Formulation-2Instance-2.log"
Set parameter TimeLimit to value 600
Set parameter IntFeasTol to value 1e-09
Set parameter DualReductions to value 0
Set parameter NonConvex to value 2
Gurobi Optimizer version 9.5.2 build v9.5.2rc0 (win64)
Thread count: 4 physical cores, 8 logical processors, using up to 8 threads
Optimize a model with 54 rows, 96 columns and 222 nonzeros
Model fingerprint: 0x2fecd7b8
Model has 35 quadratic objective terms
Model has 35 SOS constraints
Variable types: 88 continuous, 8 integer (8 binary)
Coefficient statistics:
  Matrix range     [1e-01, 2e+02]
  Objective range  [3e-03, 1e+03]
  QObjective range [2e-01, 8e+00]
  Bounds range     [1e+00, 1e+00]
  RHS range        [3e-03, 1e+03]
Presolve removed 4 rows and 7 columns
Presolve time: 0.00s
Presolved: 50 rows, 89 columns, 202 nonzeros
Presolved model has 31 SOS constraint(s)
Presolved model has 31 quadratic objective terms
Variable types: 81 continuous, 8 integer (8 binary)

Root relaxation: objective 1.235601e+05, 124 iterations, 0.00 seconds (0.00 work units)

    Nodes    |    Current Node    |     Objective Bounds      |     Work
 Expl Unexpl |  Obj  Depth IntInf | Incumbent    BestBd   Gap | It/Node Time

     0     0 123560.115    0    3          - 123560.115      -     -    0s
H    0     0                    122318.13360 123560.115  1.02%     -    0s
H    0     0                    123010.64866 123560.115  0.45%     -    0s
     0     0 123203.478    0    4 123010.649 123203.478  0.16%     -    0s
     0     0 123025.504    0    4 123010.649 123025.504  0.01%     -    0s

Cutting planes:
  Flow cover: 3
  Relax-and-lift: 1

Explored 1 nodes (132 simplex iterations) in 0.04 seconds (0.01 work units)
Thread count was 8 (of 8 available processors)

Solution count 2: 123011 122318 

Optimal solution found (tolerance 1.00e-04)
Best objective 1.230106486645e+05, best bound 1.230192438863e+05, gap 0.0070%

User-callback calls 245, time in user-callback 0.00 sec
